p cnf 14 21
14 11 5 0
-14 -10 8 0
-14 9 4 0
-14 6 4 0
-13 12 9 0
-13 -10 6 0
13 -8 -6 0
13 -8 -3 0
-13 -4 3 0
-12 -4 -2 0
-12 3 -2 0
-12 -3 -1 0
12 -2 -1 0
11 2 1 0
-10 -8 5 0
-10 5 4 0
-9 5 4 0
8 7 2 0
8 -4 3 0
-8 -3 1 0
-8 2 1 0
